; benchmark generated from python API
(set-info :status unknown)
(declare-fun args_0_8 () (_ BitVec 8))
(declare-fun strlen_77_64 () (_ BitVec 64))
(declare-fun args_1_8 () (_ BitVec 8))
(declare-fun strlen_79_64 () (_ BitVec 64))
(declare-fun args_2_8 () (_ BitVec 8))
(declare-fun strlen_81_64 () (_ BitVec 64))
(declare-fun strlen_83_64 () (_ BitVec 64))
(declare-fun args_3_8 () (_ BitVec 8))
(declare-fun args_4_8 () (_ BitVec 8))
(declare-fun strlen_85_64 () (_ BitVec 64))
(declare-fun strlen_87_64 () (_ BitVec 64))
(declare-fun args_5_16 () (_ BitVec 16))
(declare-fun strlen_91_64 () (_ BitVec 64))
(declare-fun args_6_16 () (_ BitVec 16))
(declare-fun strlen_99_64 () (_ BitVec 64))
(declare-fun args_7_16 () (_ BitVec 16))
(declare-fun strlen_108_64 () (_ BitVec 64))
(declare-fun args_8_16 () (_ BitVec 16))
(declare-fun strlen_116_64 () (_ BitVec 64))
(declare-fun args_9_16 () (_ BitVec 16))
(declare-fun strlen_126_64 () (_ BitVec 64))
(declare-fun args_10_32 () (_ BitVec 32))
(declare-fun strlen_143_64 () (_ BitVec 64))
(declare-fun args_11_32 () (_ BitVec 32))
(declare-fun strlen_158_64 () (_ BitVec 64))
(declare-fun args_12_32 () (_ BitVec 32))
(declare-fun strlen_757_64 () (_ BitVec 64))
(declare-fun strlen_220_64 () (_ BitVec 64))
(declare-fun strlen_233_64 () (_ BitVec 64))
(declare-fun strlen_247_64 () (_ BitVec 64))
(declare-fun strlen_362_64 () (_ BitVec 64))
(declare-fun strlen_395_64 () (_ BitVec 64))
(declare-fun strlen_430_64 () (_ BitVec 64))
(declare-fun strlen_463_64 () (_ BitVec 64))
(declare-fun strlen_497_64 () (_ BitVec 64))
(declare-fun strlen_533_64 () (_ BitVec 64))
(declare-fun strlen_573_64 () (_ BitVec 64))
(declare-fun strlen_612_64 () (_ BitVec 64))
(declare-fun strlen_651_64 () (_ BitVec 64))
(declare-fun strlen_687_64 () (_ BitVec 64))
(declare-fun strlen_722_64 () (_ BitVec 64))
(declare-fun strlen_789_64 () (_ BitVec 64))
(declare-fun args_13_32 () (_ BitVec 32))
(declare-fun strlen_820_64 () (_ BitVec 64))
(declare-fun args_14_32 () (_ BitVec 32))
(declare-fun strlen_846_64 () (_ BitVec 64))
(declare-fun args_15_64 () (_ BitVec 64))
(declare-fun strlen_872_64 () (_ BitVec 64))
(declare-fun args_16_64 () (_ BitVec 64))
(declare-fun strlen_896_64 () (_ BitVec 64))
(declare-fun args_17_64 () (_ BitVec 64))
(declare-fun strlen_919_64 () (_ BitVec 64))
(declare-fun args_18_64 () (_ BitVec 64))
(declare-fun strlen_940_64 () (_ BitVec 64))
(declare-fun args_19_64 () (_ BitVec 64))
(declare-fun sys_time_1091_64 () (_ BitVec 64))
(declare-fun sys_time_1102_64 () (_ BitVec 64))
(assert
 (let (($x69 (= (_ bv0 8) args_0_8)))
 (not $x69)))
(assert
 (= (_ bv1 64) strlen_77_64))
(assert
 (let (($x359 (= (_ bv0 8) args_1_8)))
 (not $x359)))
(assert
 (= (_ bv1 64) strlen_79_64))
(assert
 (let (($x211 (= (_ bv0 8) args_2_8)))
 (not $x211)))
(assert
 (= (_ bv1 64) strlen_81_64))
(assert
 (= (_ bv1 64) strlen_83_64))
(assert
 (let (($x845 (= (_ bv0 8) args_3_8)))
 (not $x845)))
(assert
 (let (($x1140 (= (_ bv0 8) args_4_8)))
 (not $x1140)))
(assert
 (= (_ bv1 64) strlen_85_64))
(assert
 (= (_ bv2 64) strlen_87_64))
(assert
 (let ((?x1474 ((_ extract 15 8) args_5_16)))
 (let (($x1010 (= (_ bv0 8) ?x1474)))
 (not $x1010))))
(assert
 (let ((?x1473 ((_ extract 7 0) args_5_16)))
 (let (($x1480 (= (_ bv0 8) ?x1473)))
 (not $x1480))))
(assert
 (= (_ bv2 64) strlen_91_64))
(assert
 (let ((?x1906 ((_ extract 7 0) args_6_16)))
 (let (($x1220 (= (_ bv0 8) ?x1906)))
 (not $x1220))))
(assert
 (let ((?x1646 ((_ extract 15 8) args_6_16)))
 (let (($x1544 (= (_ bv0 8) ?x1646)))
 (not $x1544))))
(assert
 (= (_ bv2 64) strlen_99_64))
(assert
 (let ((?x944 ((_ extract 7 0) args_7_16)))
 (let (($x2153 (= (_ bv0 8) ?x944)))
 (not $x2153))))
(assert
 (let ((?x2056 ((_ extract 15 8) args_7_16)))
 (let (($x2419 (= (_ bv0 8) ?x2056)))
 (not $x2419))))
(assert
 (= (_ bv2 64) strlen_108_64))
(assert
 (let ((?x2766 ((_ extract 15 8) args_8_16)))
 (let (($x3226 (= (_ bv0 8) ?x2766)))
 (not $x3226))))
(assert
 (let ((?x2491 ((_ extract 7 0) args_8_16)))
 (let (($x3207 (= (_ bv0 8) ?x2491)))
 (not $x3207))))
(assert
 (= (_ bv2 64) strlen_116_64))
(assert
 (let ((?x3102 ((_ extract 15 8) args_9_16)))
 (let (($x3771 (= (_ bv0 8) ?x3102)))
 (not $x3771))))
(assert
 (let ((?x3735 ((_ extract 7 0) args_9_16)))
 (let (($x3581 (= (_ bv0 8) ?x3735)))
 (not $x3581))))
(assert
 (= (_ bv4 64) strlen_126_64))
(assert
 (let ((?x3761 ((_ extract 15 8) args_10_32)))
 (let (($x3847 (= (_ bv0 8) ?x3761)))
 (not $x3847))))
(assert
 (let ((?x3490 ((_ extract 7 0) args_10_32)))
 (let (($x3139 (= (_ bv0 8) ?x3490)))
 (not $x3139))))
(assert
 (let ((?x3388 ((_ extract 23 16) args_10_32)))
 (let (($x3778 (= (_ bv0 8) ?x3388)))
 (not $x3778))))
(assert
 (let ((?x3227 ((_ extract 31 24) args_10_32)))
 (let (($x3588 (= (_ bv0 8) ?x3227)))
 (not $x3588))))
(assert
 (= (_ bv4 64) strlen_143_64))
(assert
 (let ((?x5780 ((_ extract 15 8) args_11_32)))
 (let (($x5788 (= (_ bv0 8) ?x5780)))
 (not $x5788))))
(assert
 (let ((?x5702 ((_ extract 7 0) args_11_32)))
 (let (($x5773 (= (_ bv0 8) ?x5702)))
 (not $x5773))))
(assert
 (let ((?x5688 ((_ extract 23 16) args_11_32)))
 (let (($x5775 (= (_ bv0 8) ?x5688)))
 (not $x5775))))
(assert
 (let ((?x5760 ((_ extract 31 24) args_11_32)))
 (let (($x5875 (= (_ bv0 8) ?x5760)))
 (not $x5875))))
(assert
 (let ((?x7132 ((_ extract 63 63) strlen_158_64)))
 (= (_ bv0 1) ?x7132)))
(assert
 (let ((?x7188 (bvadd (_ bv576460752303357859 64) strlen_158_64)))
 (let ((?x6440 ((_ extract 7 0) args_12_32)))
 (let (($x6436 (= (_ bv0 8) ?x6440)))
 (let ((?x7707 (ite $x6436 (_ bv576460752303357862 64) (_ bv576460752303357863 64))))
 (let ((?x7075 ((_ extract 15 8) args_12_32)))
 (let (($x5268 (= (_ bv0 8) ?x7075)))
 (let ((?x7895 (ite $x5268 (_ bv576460752303357861 64) ?x7707)))
 (let ((?x5265 ((_ extract 23 16) args_12_32)))
 (let (($x4918 (= (_ bv0 8) ?x5265)))
 (let ((?x8083 (ite $x4918 (_ bv576460752303357860 64) ?x7895)))
 (let ((?x5236 ((_ extract 31 24) args_12_32)))
 (let (($x7048 (= (_ bv0 8) ?x5236)))
 (let ((?x8084 (ite $x7048 (_ bv576460752303357859 64) ?x8083)))
 (= ?x8084 ?x7188)))))))))))))))
(assert
 (let ((?x81114 (bvadd (_ bv576460752303357859 64) strlen_757_64)))
 (let ((?x6440 ((_ extract 7 0) args_12_32)))
 (let (($x6436 (= (_ bv0 8) ?x6440)))
 (let ((?x7707 (ite $x6436 (_ bv576460752303357862 64) (_ bv576460752303357863 64))))
 (let ((?x7075 ((_ extract 15 8) args_12_32)))
 (let (($x5268 (= (_ bv0 8) ?x7075)))
 (let ((?x7895 (ite $x5268 (_ bv576460752303357861 64) ?x7707)))
 (let ((?x5265 ((_ extract 23 16) args_12_32)))
 (let (($x4918 (= (_ bv0 8) ?x5265)))
 (let ((?x8083 (ite $x4918 (_ bv576460752303357860 64) ?x7895)))
 (let ((?x5236 ((_ extract 31 24) args_12_32)))
 (let (($x7048 (= (_ bv0 8) ?x5236)))
 (let ((?x8084 (ite $x7048 (_ bv576460752303357859 64) ?x8083)))
 (= ?x8084 ?x81114)))))))))))))))
(assert
 (let ((?x78279 (bvadd (_ bv1 64) strlen_757_64)))
 (let ((?x81276 ((_ extract 63 3) ?x78279)))
 (= (_ bv0 61) ?x81276))))
(assert
 (let ((?x78134 ((_ extract 2 0) strlen_757_64)))
 (let ((?x79672 (bvadd (_ bv1 3) ?x78134)))
 (bvule ?x79672 (_ bv4 3)))))
(assert
 (= (_ bv1 64) strlen_220_64))
(assert
 (= (_ bv1 64) strlen_233_64))
(assert
 (= (_ bv1 64) strlen_247_64))
(assert
 (= (_ bv1 64) strlen_362_64))
(assert
 (= (_ bv1 64) strlen_395_64))
(assert
 (= (_ bv1 64) strlen_430_64))
(assert
 (= (_ bv1 64) strlen_463_64))
(assert
 (= (_ bv2 64) strlen_497_64))
(assert
 (= (_ bv2 64) strlen_533_64))
(assert
 (= (_ bv2 64) strlen_573_64))
(assert
 (= (_ bv2 64) strlen_612_64))
(assert
 (= (_ bv2 64) strlen_651_64))
(assert
 (= (_ bv4 64) strlen_687_64))
(assert
 (= (_ bv4 64) strlen_722_64))
(assert
 (let ((?x86057 (bvadd (_ bv576460752303357864 64) strlen_789_64)))
 (let ((?x8592 ((_ extract 7 0) args_13_32)))
 (let (($x8567 (= (_ bv0 8) ?x8592)))
 (let ((?x12896 (ite $x8567 (_ bv576460752303357867 64) (_ bv576460752303357868 64))))
 (let ((?x8497 ((_ extract 15 8) args_13_32)))
 (let (($x8524 (= (_ bv0 8) ?x8497)))
 (let ((?x12930 (ite $x8524 (_ bv576460752303357866 64) ?x12896)))
 (let ((?x8547 ((_ extract 23 16) args_13_32)))
 (let (($x7742 (= (_ bv0 8) ?x8547)))
 (let ((?x12843 (ite $x7742 (_ bv576460752303357865 64) ?x12930)))
 (let ((?x8516 ((_ extract 31 24) args_13_32)))
 (let (($x8529 (= (_ bv0 8) ?x8516)))
 (let ((?x12905 (ite $x8529 (_ bv576460752303357864 64) ?x12843)))
 (= ?x12905 ?x86057)))))))))))))))
(assert
 (let ((?x86262 (bvadd (_ bv1 64) strlen_789_64)))
 (let ((?x86324 ((_ extract 63 3) ?x86262)))
 (= (_ bv0 61) ?x86324))))
(assert
 (let ((?x86216 ((_ extract 2 0) strlen_789_64)))
 (let ((?x86163 (bvadd (_ bv1 3) ?x86216)))
 (bvule ?x86163 (_ bv5 3)))))
(assert
 (bvule strlen_789_64 (_ bv18446744073709551614 64)))
(assert
 (let ((?x87470 (bvadd (_ bv576460752303357869 64) strlen_820_64)))
 (let ((?x8685 ((_ extract 7 0) args_14_32)))
 (let (($x8778 (= (_ bv0 8) ?x8685)))
 (let ((?x13011 (ite $x8778 (_ bv576460752303357872 64) (_ bv576460752303357873 64))))
 (let ((?x8754 ((_ extract 15 8) args_14_32)))
 (let (($x8818 (= (_ bv0 8) ?x8754)))
 (let ((?x13039 (ite $x8818 (_ bv576460752303357871 64) ?x13011)))
 (let ((?x8747 ((_ extract 23 16) args_14_32)))
 (let (($x8600 (= (_ bv0 8) ?x8747)))
 (let ((?x13055 (ite $x8600 (_ bv576460752303357870 64) ?x13039)))
 (let ((?x8789 ((_ extract 31 24) args_14_32)))
 (let (($x8713 (= (_ bv0 8) ?x8789)))
 (let ((?x13225 (ite $x8713 (_ bv576460752303357869 64) ?x13055)))
 (= ?x13225 ?x87470)))))))))))))))
(assert
 (let ((?x90943 (bvadd (_ bv1 64) strlen_820_64)))
 (let ((?x91104 ((_ extract 63 3) ?x90943)))
 (= (_ bv0 61) ?x91104))))
(assert
 (let ((?x87310 ((_ extract 2 0) strlen_820_64)))
 (let ((?x87427 (bvadd (_ bv1 3) ?x87310)))
 (bvule ?x87427 (_ bv5 3)))))
(assert
 (bvule strlen_820_64 (_ bv18446744073709551614 64)))
(assert
 (let ((?x91170 (bvadd (_ bv576460752303357874 64) strlen_846_64)))
 (let ((?x12719 ((_ extract 7 0) args_15_64)))
 (let (($x12599 (= (_ bv0 8) ?x12719)))
 (let ((?x13251 (ite $x12599 (_ bv576460752303357881 64) (_ bv576460752303357882 64))))
 (let ((?x12687 ((_ extract 15 8) args_15_64)))
 (let (($x12671 (= (_ bv0 8) ?x12687)))
 (let ((?x13247 (ite $x12671 (_ bv576460752303357880 64) ?x13251)))
 (let ((?x12566 ((_ extract 23 16) args_15_64)))
 (let (($x12715 (= (_ bv0 8) ?x12566)))
 (let ((?x13261 (ite $x12715 (_ bv576460752303357879 64) ?x13247)))
 (let ((?x12654 ((_ extract 31 24) args_15_64)))
 (let (($x12645 (= (_ bv0 8) ?x12654)))
 (let ((?x12676 (ite $x12645 (_ bv576460752303357878 64) ?x13261)))
 (let ((?x12395 ((_ extract 39 32) args_15_64)))
 (let (($x12668 (= (_ bv0 8) ?x12395)))
 (let ((?x12427 (ite $x12668 (_ bv576460752303357877 64) ?x12676)))
 (let ((?x12620 ((_ extract 47 40) args_15_64)))
 (let (($x12529 (= (_ bv0 8) ?x12620)))
 (let ((?x12859 (ite $x12529 (_ bv576460752303357876 64) ?x12427)))
 (let ((?x12640 ((_ extract 55 48) args_15_64)))
 (let (($x12613 (= (_ bv0 8) ?x12640)))
 (let ((?x13528 (ite $x12613 (_ bv576460752303357875 64) ?x12859)))
 (let ((?x12684 ((_ extract 63 56) args_15_64)))
 (let (($x12730 (= (_ bv0 8) ?x12684)))
 (let ((?x13670 (ite $x12730 (_ bv576460752303357874 64) ?x13528)))
 (= ?x13670 ?x91170)))))))))))))))))))))))))))
(assert
 (let ((?x94625 (bvadd (_ bv1 64) strlen_846_64)))
 (let ((?x94706 ((_ extract 63 4) ?x94625)))
 (= (_ bv0 60) ?x94706))))
(assert
 (let ((?x94595 ((_ extract 3 0) strlen_846_64)))
 (let ((?x94674 (bvadd (_ bv1 4) ?x94595)))
 (bvule ?x94674 (_ bv9 4)))))
(assert
 (bvule strlen_846_64 (_ bv18446744073709551614 64)))
(assert
 (let ((?x98356 (bvadd (_ bv576460752303357883 64) strlen_872_64)))
 (let ((?x16071 ((_ extract 7 0) args_16_64)))
 (let (($x15893 (= (_ bv0 8) ?x16071)))
 (let ((?x18009 (ite $x15893 (_ bv576460752303357890 64) (_ bv576460752303357891 64))))
 (let ((?x15920 ((_ extract 15 8) args_16_64)))
 (let (($x15905 (= (_ bv0 8) ?x15920)))
 (let ((?x18038 (ite $x15905 (_ bv576460752303357889 64) ?x18009)))
 (let ((?x16120 ((_ extract 23 16) args_16_64)))
 (let (($x16040 (= (_ bv0 8) ?x16120)))
 (let ((?x18044 (ite $x16040 (_ bv576460752303357888 64) ?x18038)))
 (let ((?x16091 ((_ extract 31 24) args_16_64)))
 (let (($x16125 (= (_ bv0 8) ?x16091)))
 (let ((?x18036 (ite $x16125 (_ bv576460752303357887 64) ?x18044)))
 (let ((?x16044 ((_ extract 39 32) args_16_64)))
 (let (($x16109 (= (_ bv0 8) ?x16044)))
 (let ((?x18029 (ite $x16109 (_ bv576460752303357886 64) ?x18036)))
 (let ((?x15231 ((_ extract 47 40) args_16_64)))
 (let (($x15832 (= (_ bv0 8) ?x15231)))
 (let ((?x18021 (ite $x15832 (_ bv576460752303357885 64) ?x18029)))
 (let ((?x15951 ((_ extract 55 48) args_16_64)))
 (let (($x15924 (= (_ bv0 8) ?x15951)))
 (let ((?x18015 (ite $x15924 (_ bv576460752303357884 64) ?x18021)))
 (let ((?x15821 ((_ extract 63 56) args_16_64)))
 (let (($x15881 (= (_ bv0 8) ?x15821)))
 (let ((?x18001 (ite $x15881 (_ bv576460752303357883 64) ?x18015)))
 (= ?x18001 ?x98356)))))))))))))))))))))))))))
(assert
 (let ((?x98536 (bvadd (_ bv1 64) strlen_872_64)))
 (let ((?x98519 ((_ extract 63 4) ?x98536)))
 (= (_ bv0 60) ?x98519))))
(assert
 (let ((?x98514 ((_ extract 3 0) strlen_872_64)))
 (let ((?x98654 (bvadd (_ bv1 4) ?x98514)))
 (bvule ?x98654 (_ bv9 4)))))
(assert
 (bvule strlen_872_64 (_ bv18446744073709551614 64)))
(assert
 (let ((?x101669 (bvadd (_ bv576460752303357892 64) strlen_896_64)))
 (let ((?x17285 ((_ extract 7 0) args_17_64)))
 (let (($x13048 (= (_ bv0 8) ?x17285)))
 (let ((?x19912 (ite $x13048 (_ bv576460752303357899 64) (_ bv576460752303357900 64))))
 (let ((?x16045 ((_ extract 15 8) args_17_64)))
 (let (($x16281 (= (_ bv0 8) ?x16045)))
 (let ((?x23127 (ite $x16281 (_ bv576460752303357898 64) ?x19912)))
 (let ((?x13888 ((_ extract 23 16) args_17_64)))
 (let (($x13927 (= (_ bv0 8) ?x13888)))
 (let ((?x22133 (ite $x13927 (_ bv576460752303357897 64) ?x23127)))
 (let ((?x16166 ((_ extract 31 24) args_17_64)))
 (let (($x14506 (= (_ bv0 8) ?x16166)))
 (let ((?x19735 (ite $x14506 (_ bv576460752303357896 64) ?x22133)))
 (let ((?x14555 ((_ extract 39 32) args_17_64)))
 (let (($x16257 (= (_ bv0 8) ?x14555)))
 (let ((?x20072 (ite $x16257 (_ bv576460752303357895 64) ?x19735)))
 (let ((?x16160 ((_ extract 47 40) args_17_64)))
 (let (($x17914 (= (_ bv0 8) ?x16160)))
 (let ((?x19859 (ite $x17914 (_ bv576460752303357894 64) ?x20072)))
 (let ((?x17949 ((_ extract 55 48) args_17_64)))
 (let (($x16357 (= (_ bv0 8) ?x17949)))
 (let ((?x20112 (ite $x16357 (_ bv576460752303357893 64) ?x19859)))
 (let ((?x16175 ((_ extract 63 56) args_17_64)))
 (let (($x16341 (= (_ bv0 8) ?x16175)))
 (let ((?x19993 (ite $x16341 (_ bv576460752303357892 64) ?x20112)))
 (= ?x19993 ?x101669)))))))))))))))))))))))))))
(assert
 (let ((?x101578 (bvadd (_ bv1 64) strlen_896_64)))
 (let ((?x101602 ((_ extract 63 4) ?x101578)))
 (= (_ bv0 60) ?x101602))))
(assert
 (let ((?x101604 ((_ extract 3 0) strlen_896_64)))
 (let ((?x101691 (bvadd (_ bv1 4) ?x101604)))
 (bvule ?x101691 (_ bv9 4)))))
(assert
 (bvule strlen_896_64 (_ bv18446744073709551614 64)))
(assert
 (let ((?x98570 (bvadd (_ bv576460752303357901 64) strlen_919_64)))
 (let ((?x21369 ((_ extract 7 0) args_18_64)))
 (let (($x23356 (= (_ bv0 8) ?x21369)))
 (let ((?x24376 (ite $x23356 (_ bv576460752303357908 64) (_ bv576460752303357909 64))))
 (let ((?x17981 ((_ extract 15 8) args_18_64)))
 (let (($x20999 (= (_ bv0 8) ?x17981)))
 (let ((?x24277 (ite $x20999 (_ bv576460752303357907 64) ?x24376)))
 (let ((?x23399 ((_ extract 23 16) args_18_64)))
 (let (($x23441 (= (_ bv0 8) ?x23399)))
 (let ((?x24342 (ite $x23441 (_ bv576460752303357906 64) ?x24277)))
 (let ((?x21200 ((_ extract 31 24) args_18_64)))
 (let (($x23434 (= (_ bv0 8) ?x21200)))
 (let ((?x24281 (ite $x23434 (_ bv576460752303357905 64) ?x24342)))
 (let ((?x18357 ((_ extract 39 32) args_18_64)))
 (let (($x23108 (= (_ bv0 8) ?x18357)))
 (let ((?x26188 (ite $x23108 (_ bv576460752303357904 64) ?x24281)))
 (let ((?x23328 ((_ extract 47 40) args_18_64)))
 (let (($x17902 (= (_ bv0 8) ?x23328)))
 (let ((?x26208 (ite $x17902 (_ bv576460752303357903 64) ?x26188)))
 (let ((?x15573 ((_ extract 55 48) args_18_64)))
 (let (($x23188 (= (_ bv0 8) ?x15573)))
 (let ((?x26014 (ite $x23188 (_ bv576460752303357902 64) ?x26208)))
 (let ((?x18296 ((_ extract 63 56) args_18_64)))
 (let (($x23498 (= (_ bv0 8) ?x18296)))
 (let ((?x25991 (ite $x23498 (_ bv576460752303357901 64) ?x26014)))
 (= ?x25991 ?x98570)))))))))))))))))))))))))))
(assert
 (let ((?x104621 (bvadd (_ bv1 64) strlen_919_64)))
 (let ((?x104910 ((_ extract 63 4) ?x104621)))
 (= (_ bv0 60) ?x104910))))
(assert
 (let ((?x104603 ((_ extract 3 0) strlen_919_64)))
 (let ((?x104870 (bvadd (_ bv1 4) ?x104603)))
 (bvule ?x104870 (_ bv9 4)))))
(assert
 (bvule strlen_919_64 (_ bv18446744073709551614 64)))
(assert
 (let ((?x107741 (bvadd (_ bv576460752303357910 64) strlen_940_64)))
 (let ((?x27336 ((_ extract 7 0) args_19_64)))
 (let (($x27385 (= (_ bv0 8) ?x27336)))
 (let ((?x20231 (ite $x27385 (_ bv576460752303357917 64) (_ bv576460752303357918 64))))
 (let ((?x25557 ((_ extract 15 8) args_19_64)))
 (let (($x25388 (= (_ bv0 8) ?x25557)))
 (let ((?x19999 (ite $x25388 (_ bv576460752303357916 64) ?x20231)))
 (let ((?x27267 ((_ extract 23 16) args_19_64)))
 (let (($x27378 (= (_ bv0 8) ?x27267)))
 (let ((?x20088 (ite $x27378 (_ bv576460752303357915 64) ?x19999)))
 (let ((?x25573 ((_ extract 31 24) args_19_64)))
 (let (($x27315 (= (_ bv0 8) ?x25573)))
 (let ((?x20060 (ite $x27315 (_ bv576460752303357914 64) ?x20088)))
 (let ((?x25213 ((_ extract 39 32) args_19_64)))
 (let (($x23385 (= (_ bv0 8) ?x25213)))
 (let ((?x20235 (ite $x23385 (_ bv576460752303357913 64) ?x20060)))
 (let ((?x27324 ((_ extract 47 40) args_19_64)))
 (let (($x27088 (= (_ bv0 8) ?x27324)))
 (let ((?x20237 (ite $x27088 (_ bv576460752303357912 64) ?x20235)))
 (let ((?x24874 ((_ extract 55 48) args_19_64)))
 (let (($x25431 (= (_ bv0 8) ?x24874)))
 (let ((?x20239 (ite $x25431 (_ bv576460752303357911 64) ?x20237)))
 (let ((?x27258 ((_ extract 63 56) args_19_64)))
 (let (($x26264 (= (_ bv0 8) ?x27258)))
 (let ((?x20241 (ite $x26264 (_ bv576460752303357910 64) ?x20239)))
 (= ?x20241 ?x107741)))))))))))))))))))))))))))
(assert
 (let ((?x107829 (bvadd (_ bv1 64) strlen_940_64)))
 (let ((?x107828 ((_ extract 63 4) ?x107829)))
 (= (_ bv0 60) ?x107828))))
(assert
 (let ((?x107669 ((_ extract 3 0) strlen_940_64)))
 (let ((?x107663 (bvadd (_ bv1 4) ?x107669)))
 (bvule ?x107663 (_ bv9 4)))))
(assert
 (bvule strlen_940_64 (_ bv18446744073709551614 64)))
(assert
 (bvsle (_ bv0 64) sys_time_1091_64))
(assert
 (bvsge sys_time_1102_64 sys_time_1091_64))
(maximize strlen_99_64)
(maximize strlen_85_64)
(maximize args_2_8)
(maximize strlen_91_64)
(minimize args_3_8)
(maximize strlen_651_64)
(minimize strlen_116_64)
(maximize strlen_220_64)
(maximize strlen_497_64)
(maximize strlen_919_64)
(maximize strlen_83_64)
(maximize strlen_722_64)
(minimize strlen_940_64)
(minimize strlen_247_64)
(minimize strlen_757_64)
(minimize strlen_233_64)
(minimize strlen_789_64)
(maximize strlen_116_64)
(maximize strlen_789_64)
(minimize strlen_687_64)
(maximize strlen_108_64)
(maximize args_4_8)
(minimize strlen_820_64)
(minimize args_7_16)
(maximize strlen_896_64)
(maximize args_8_16)
(maximize strlen_612_64)
(maximize strlen_143_64)
(maximize strlen_87_64)
(maximize sys_time_1091_64)
(minimize strlen_99_64)
(minimize strlen_143_64)
(maximize strlen_126_64)
(minimize strlen_85_64)
(minimize args_15_64)
(minimize strlen_430_64)
(maximize strlen_872_64)
(minimize strlen_77_64)
(maximize args_9_16)
(maximize args_16_64)
(minimize args_16_64)
(minimize args_11_32)
(minimize strlen_533_64)
(maximize args_6_16)
(minimize strlen_87_64)
(maximize strlen_820_64)
(maximize strlen_687_64)
(minimize strlen_896_64)
(minimize strlen_158_64)
(maximize args_3_8)
(minimize args_6_16)
(maximize strlen_77_64)
(maximize args_19_64)
(minimize strlen_79_64)
(maximize strlen_233_64)
(minimize strlen_81_64)
(maximize args_7_16)
(minimize args_0_8)
(minimize args_8_16)
(minimize strlen_362_64)
(minimize args_4_8)
(maximize args_0_8)
(minimize args_1_8)
(minimize strlen_573_64)
(maximize args_14_32)
(minimize strlen_612_64)
(minimize strlen_83_64)
(minimize strlen_220_64)
(maximize args_13_32)
(minimize strlen_846_64)
(maximize strlen_846_64)
(maximize args_10_32)
(minimize args_9_16)
(maximize args_12_32)
(minimize args_18_64)
(maximize strlen_573_64)
(maximize args_18_64)
(minimize sys_time_1091_64)
(maximize args_5_16)
(minimize args_19_64)
(maximize strlen_362_64)
(maximize strlen_158_64)
(maximize strlen_430_64)
(check-sat)
(get-objectives)
